000 000 000 001 000 000 000 000 -99 -99 -99 -99 000 000 000 000 -99 000 000 000 000 000 000 000 000 000 000 000 000 -99 000
000 000 001 003 000 000 000 000 -99 -99 -99 -99 000 000 000 000 000 000 000 000 000 000 000 000 000 000 000 000 000 -99 001
000 000 001 002 000 000 000 -99 -99 -99 -99 -99 -99 000 000 000 000 000 000 000 000 000 000 000 000 000 000 000 000 001 001
000 000 000 000 000 000 000 000 000 000 -99 -99 -99 000 000 000 000 000 000 000 000 000 000 000 000 000 000 000 000 001 001
000 000 000 000 000 000 000 000 000 000 000 -99 000 000 000 000 000 000 000 000 000 000 000 000 000 000 000 000 -99 -99 001
000 000 000 000 000 -99 000 000 000 000 000 -99 000 000 000 000 000 000 000 000 000 000 000 000 001 000 000 -99 -99 002 002
000 000 000 000 000 000 000 000 000 000 000 -99 -99 000 000 000 000 000 000 000 000 000 000 001 001 000 -99 -99 -99 003 002
000 000 000 000 000 000 -99 000 000 000 000 -99 -99 000 000 000 000 000 000 000 000 000 000 001 001 000 -99 -99 -99 003 003
000 000 000 000 000 000 -99 000 000 000 000 000 -99 000 000 000 000 000 000 000 000 000 000 001 001 000 000 001 002 002 004
000 000 000 000 000 000 000 000 000 000 000 000 -99 000 000 000 000 000 000 000 000 000 000 001 001 001 000 001 002 003 003
000 002 005 002 000 000 000 000 000 000 000 000 000 000 000 000 000 000 000 000 000 000 001 001 000 001 001 001 002 002 004
005 015 010 015 001 001 000 000 000 000 000 000 000 000 000 000 000 000 000 000 000 000 001 000 001 001 000 001 002 003 004
018 039 024 072 001 001 001 002 001 000 000 000 000 000 000 000 000 000 000 000 000 000 001 001 001 001 001 001 003 003 004
011 039 068 114 007 003 003 003 003 003 001 000 000 000 000 000 000 000 000 000 000 000 001 001 001 001 001 001 002 003 005
013 030 042 050 008 005 012 006 005 005 004 001 000 000 000 000 000 -99 000 000 000 000 001 001 001 001 001 001 002 007 004
020 075 068 040 005 007 033 022 014 016 017 010 001 000 000 000 000 001 000 000 000 000 000 000 001 001 002 001 003 005 005
013 034 056 092 031 018 052 047 024 031 021 014 006 002 000 000 000 001 002 000 000 000 000 000 000 001 001 001 001 002 007
005 008 020 107 082 047 058 066 052 035 043 015 014 007 001 000 001 001 003 003 002 001 000 000 000 000 001 001 001 002 005
003 004 011 105 061 061 056 035 061 054 025 025 018 013 004 002 003 003 005 009 017 005 001 000 000 001 000 000 001 002 003
005 006 009 037 058 105 072 075 089 109 089 035 029 021 015 006 006 007 008 010 017 005 003 001 001 002 000 000 001 002 003
008 015 013 036 054 083 048 071 096 146 102 057 055 035 025 015 012 018 029 021 031 025 013 004 002 002 001 -99 002 003 004
007 019 020 029 043 055 025 062 102 114 111 083 162 077 048 037 019 018 036 024 028 025 013 006 002 003 002 -99 002 003 006
009 018 021 019 029 039 034 069 121 069 085 100 313 118 073 046 016 029 069 037 035 031 017 007 004 003 003 -99 003 004 010
006 008 007 012 019 046 056 069 037 058 031 089 165 082 052 020 012 055 100 052 048 038 029 008 004 003 -99 -99 -99 004 012
003 004 007 009 016 029 035 029 018 040 046 089 109 114 028 008 014 031 045 047 043 032 035 015 004 003 010 011 -99 005 013
002 003 006 004 007 021 014 007 010 052 048 052 085 058 010 006 009 020 022 024 022 029 026 021 -99 -99 010 011 -99 006 012
003 004 004 005 007 011 005 006 017 052 031 023 025 025 006 003 003 009 013 009 009 033 021 013 019 -99 008 012 005 006 028
001 003 002 003 003 002 003 037 051 023 008 009 007 003 002 001 001 006 005 004 006 012 008 006 009 008 010 009 006 010 038
000 001 002 002 002 001 003 017 030 006 002 003 004 001 001 000 001 002 001 001 003 003 004 -99 005 015 026 015 009 031 072
000 000 000 001 001 001 001 005 008 002 000 000 000 000 000 000 001 000 000 000 001 001 -99 -99 -99 009 022 016 025 039 100
000 000 000 000 000 000 001 000 000 000 000 000 000 000 000 000 -99 000 000 000 000 000 -99 -99 -99 005 012 015 037 031 066
000 000 000 000 000 000 001 000 000 000 000 000 000 000 000 000 000 000 000 000 000 -99 000 000 000 002 004 015 042 008 055
000 000 000 000 000 000 -99 000 000 000 000 000 000 000 000 000 000 000 000 -99 -99 -99 000 000 000 001 002 007 006 005 028
000 000 000 -99 000 000 000 000 000 000 000 000 000 000 000 000 000 000 -99 000 000 000 000 000 000 000 000 000 001 001 004
000 000 000 000 000 000 000 000 000 000 000 000 000 000 000 000 000 -99 -99 000 000 000 000 000 000 000 000 000 000 000 001
000 000 000 000 000 000 000 000 000 000 000 000 000 000 000 000 000 -99 -99 000 000 000 000 000 000 000 000 000 000 000 000
000 000 000 000 000 000 000 000 000 000 000 000 000 000 000 000 000 -99 000 000 000 000 000 000 000 000 000 000 000 -99 000
000 000 -99 000 000 000 -99 000 000 000 000 -99 000 000 000 000 000 -99 000 000 000 000 000 000 000 000 000 000 -99 000 000
000 000 000 000 000 000 -99 -99 -99 000 -99 -99 000 000 000 000 -99 000 000 000 000 000 000 000 000 000 000 -99 000 000 000
000 -99 000 000 000 -99 -99 -99 -99 -99 -99 -99 000 000 000 000 000 000 000 000 000 000 000 000 000 000 000 -99 000 000 000
000 000 000 000 000 -99 -99 -99 -99 000 000 000 000 000 000 -99 000 000 000 000 000 000 000 000 -99 000 000 -99 -99 000 000
000 000 -99 000 -99 -99 -99 000 000 000 000 000 000 000 000 -99 000 000 000 000 000 -99 000 -99 000 -99 -99 -99 -99 000 000
000 -99 -99 -99 -99 -99 -99 -99 -99 000 000 000 000 000 -99 -99 000 000 000 000 -99 -99 -99 -99 -99 -99 -99 -99 -99 -99 000
-99 -99 -99 -99 -99 -99 -99 -99 -99 000 000 000 000 000 000 000 000 000 000 000 000 -99 -99 -99 -99 -99 -99 000 -99 -99 -99
-99 -99 -99 -99 -99 -99 -99 -99 -99 000 000 000 000 000 000 000 -99 000 000 000 000 -99 -99 -99 -99 -99 000 000 -99 -99 -99
-99 -99 -99 000 -99 -99 -99 -99 -99 -99 -99 000 000 000 000 -99 -99 000 000 000 -99 -99 -99 -99 -99 000 000 000 -99 -99 -99
-99 -99 -99 -99 000 -99 -99 -99 -99 -99 000 000 000 -99 000 -99 -99 000 000 000 -99 -99 000 -99 -99 000 000 000 -99 -99 -99
-99 -99 -99 -99 -99 -99 -99 -99 -99 -99 -99 000 -99 -99 -99 -99 -99 000 000 -99 -99 -99 000 000 -99 000 000 -99 -99 -99 -99
-99 -99 -99 -99 -99 -99 -99 -99 -99 -99 000 000 -99 -99 -99 -99 -99 -99 -99 -99 -99 -99 000 -99 -99 000 000 000 -99 -99 -99
-99 -99 -99 -99 -99 -99 -99 -99 -99 -99 000 -99 -99 -99 -99 -99 -99 -99 -99 -99 -99 000 -99 -99 -99 000 000 000 -99 -99 -99
-99 -99 -99 -99 -99 -99 -99 -99 -99 -99 -99 -99 -99 -99 -99 -99 -99 -99 -99 -99 -99 -99 -99 -99 -99 -99 -99 -99 -99 -99 -99
-99 -99 -99 -99 -99 -99 -99 -99 -99 -99 -99 -99 -99 -99 -99 -99 -99 -99 -99 -99 -99 -99 -99 -99 -99 -99 -99 -99 -99 -99 000
-99 -99 -99 -99 -99 -99 -99 -99 -99 -99 -99 -99 -99 -99 -99 -99 -99 -99 -99 -99 -99 -99 -99 -99 -99 -99 -99 -99 -99 000 000
-99 -99 -99 -99 -99 -99 -99 -99 -99 -99 -99 -99 -99 -99 -99 -99 -99 -99 -99 -99 -99 -99 -99 -99 -99 -99 -99 -99 001 002 001
-99 -99 -99 -99 -99 -99 -99 -99 -99 -99 -99 -99 -99 -99 -99 -99 -99 -99 -99 -99 -99 -99 -99 -99 -99 -99 -99 001 002 002 000
